NAME: ./prFile/tspFile/tsp_file57.tsp
COMMENT: TSP file generated by Python
TYPE: TSP
DIMENSION: 40
EDGE_WEIGHT_TYPE: EUC_2D
NODE_COORD_SECTION
1 4 95
2 68 77
3 93 87
4 21 75
5 16 14
6 36 19
7 7 25
8 34 83
9 34 65
10 41 86
11 72 79
12 56 29
13 14 56
14 11 9
15 49 85
16 89 41
17 88 51
18 48 3
19 99 96
20 18 30
21 97 50
22 40 75
23 44 50
24 69 23
25 45 62
26 45 53
27 32 99
28 68 45
29 62 36
30 66 24
31 45 51
32 1 36
33 63 61
34 84 50
35 33 35
36 71 94
37 55 12
38 45 94
39 67 59
40 57 87
EOF
